<number of tasks>
89

<cycle time>
87

<task times>
1 28
2 17
3 7
4 10
5 12
6 16
7 13
8 8
9 13
10 24
11 16
12 24
13 12
14 20
15 22
16 22
17 22
18 47
19 6
20 12
21 6
22 22
23 7
24 14
25 68
26 15
27 8
28 74
29 32
30 11
31 18
32 15
33 42
34 27
35 38
36 38
37 26
38 35
39 31
40 8
41 14
42 8
43 8
44 8
45 17
46 7
47 19
48 12
49 24
50 26
51 22
52 14
53 27
54 60
55 4
56 2
57 1
58 9
59 5
60 6
61 7
62 12
63 2
64 11
65 14
66 6
67 21
68 14
69 1
70 6
71 21
72 11
73 14
74 28
75 12
76 11
77 30
78 22
79 14
80 31
81 18
82 16
83 7
84 38
85 8
86 31
87 29
88 12
89 18

<precedence relations>
1,2
2,3
3,4
4,5
4,6
4,7
4,8
4,9
5,10
6,11
7,12
8,18
9,18
10,14
11,12
12,13
13,14
14,15
14,16
15,17
16,54
17,18
18,19
18,20
19,22
20,21
20,28
21,54
22,23
23,24
24,25
25,26
25,27
25,29
26,37
27,33
28,29
29,31
30,54
31,32
32,33
33,34
34,35
35,36
35,37
36,38
37,38
38,39
39,40
39,41
39,42
39,43
40,44
41,53
42,53
43,45
44,52
45,46
46,47
47,48
47,49
49,50
50,51
51,52
52,53
53,68
53,69
53,70
53,71
54,55
55,56
56,57
57,58
57,59
57,60
57,61
57,62
57,63
57,64
57,65
57,66
58,67
59,67
60,67
61,67
62,67
63,67
64,67
65,67
66,67
67,73
68,72
69,72
70,72
71,73
72,78
72,80
73,74
74,75
74,76
75,77
76,81
77,78
78,79
79,81
80,81
81,82
81,84
81,85
82,83
83,86
84,86
85,86
86,87
87,88
87,89

<setup times forward>
1,30:2
2,30:2
3,30:2
4,5:7
4,7:7
4,9:3
4,30:2
5,6:7
5,8:7
5,9:10
5,10:10
5,30:5
6,5:7
6,7:7
6,9:3
6,10:3
6,11:7
6,30:2
7,6:7
7,8:7
7,9:10
7,10:10
7,30:5
8,5:7
8,7:7
8,9:3
8,10:3
8,11:7
8,12:7
8,13:7
8,14:3
8,15:3
8,16:2
8,17:3
8,18:3
8,30:2
9,5:10
9,6:3
9,7:10
9,8:3
9,11:10
9,12:10
9,13:10
9,16:5
9,17:6
9,18:6
9,30:5
10,6:3
10,7:10
10,8:3
10,11:10
10,12:10
10,13:10
10,30:5
11,8:7
11,9:10
11,10:10
11,30:5
12,8:7
12,9:10
12,10:10
12,30:5
13,8:7
13,9:10
13,10:10
13,14:10
13,30:5
14,8:3
14,16:5
14,30:5
15,8:3
15,16:5
15,17:6
15,30:5
16,8:2
16,9:5
16,15:5
16,17:1
16,18:1
16,19:1
16,20:1
16,25:6
16,26:8
16,27:6
16,28:2
16,29:8
16,31:8
16,32:8
16,33:5
16,34:5
16,35:10
16,36:10
16,37:3
16,38:3
16,40:3
16,41:11
16,44:11
16,46:3
16,47:3
16,48:3
16,49:3
16,50:3
16,51:11
16,52:11
16,53:11
16,54:2
16,68:10
16,69:10
16,70:10
16,71:10
16,72:10
16,80:10
17,8:3
17,9:6
17,16:1
17,30:1
18,16:1
18,30:1
19,16:1
19,21:1
19,22:1
19,28:3
19,30:1
19,54:1
19,55:1
19,56:1
19,57:1
19,58:4
19,59:4
19,60:6
19,61:4
19,62:6
19,63:4
19,64:11
19,65:1
19,66:1
19,67:1
20,16:1
20,21:1
20,22:1
20,23:1
20,24:1
20,25:7
20,26:9
20,27:7
20,28:3
20,30:1
21,19:1
21,25:6
21,26:8
21,27:6
21,28:2
21,29:8
21,31:8
21,32:8
21,33:5
21,34:5
21,35:10
21,36:10
21,37:3
21,38:3
21,40:3
21,41:11
21,44:11
21,46:3
21,47:3
21,48:3
21,49:3
21,50:3
21,51:11
21,52:11
21,53:11
21,54:2
21,68:10
21,69:10
21,70:10
21,71:10
21,72:10
21,80:10
22,20:1
22,28:2
22,54:2
22,55:2
22,56:2
22,57:2
22,58:3
22,59:3
22,60:5
22,61:3
22,62:5
22,63:3
22,64:10
22,65:2
22,66:2
23,20:1
23,28:2
23,54:2
23,55:2
23,56:2
23,57:2
23,58:3
23,59:3
23,60:5
23,61:3
23,62:5
23,63:3
23,64:10
23,65:2
23,66:2
24,20:1
24,25:6
24,28:2
24,54:2
24,55:2
24,56:2
24,57:2
24,58:3
24,59:3
24,60:5
24,61:3
24,62:5
24,63:3
24,64:10
24,65:2
24,66:2
25,16:6
25,20:7
25,21:6
25,26:2
25,28:4
25,29:2
25,30:6
25,54:8
25,55:8
25,56:8
25,57:8
25,58:3
25,59:3
25,60:1
25,61:3
25,62:1
25,63:3
25,64:4
25,65:8
25,66:8
25,67:6
26,16:8
26,20:9
26,21:8
26,27:2
26,28:6
26,30:8
26,33:3
26,34:3
26,35:2
26,36:2
26,37:5
26,54:10
26,55:10
26,56:10
26,57:10
26,58:5
26,59:5
26,60:3
26,61:5
26,62:3
26,63:5
26,64:2
26,65:10
26,66:10
26,67:8
27,16:6
27,20:7
27,21:6
27,26:2
27,28:4
27,29:2
27,30:6
27,31:2
27,32:2
27,33:1
27,54:8
27,55:8
27,56:8
27,57:8
27,58:3
27,59:3
27,60:1
27,61:3
27,62:1
27,63:3
27,64:4
27,65:8
27,66:8
27,67:6
28,16:2
28,19:3
28,21:2
28,22:2
28,23:2
28,24:2
28,25:4
28,26:6
28,27:4
28,29:6
28,30:2
28,54:4
28,55:4
28,56:4
28,57:4
28,58:1
28,59:1
28,60:3
28,61:1
28,62:3
28,63:1
28,64:8
28,65:4
28,66:4
28,67:2
29,16:8
29,21:8
29,27:2
29,30:8
29,54:10
29,55:10
29,56:10
29,57:10
29,58:5
29,59:5
29,60:3
29,61:5
29,62:3
29,63:5
29,64:2
29,65:10
29,66:10
29,67:8
30,1:2
30,2:2
30,3:2
30,4:2
30,5:5
30,6:2
30,7:5
30,8:2
30,9:5
30,10:5
30,11:5
30,12:5
30,13:5
30,14:5
30,15:5
30,17:1
30,18:1
30,19:1
30,20:1
30,25:6
30,26:8
30,27:6
30,28:2
30,29:8
30,31:8
30,32:8
30,33:5
30,34:5
30,35:10
30,36:10
30,37:3
30,38:3
30,40:3
30,41:11
30,44:11
30,46:3
30,47:3
30,48:3
30,49:3
30,50:3
30,51:11
30,52:11
30,53:11
30,54:2
30,68:10
30,69:10
30,70:10
30,71:10
30,72:10
30,80:10
31,16:8
31,21:8
31,27:2
31,30:8
31,54:10
31,55:10
31,56:10
31,57:10
31,58:5
31,59:5
31,60:3
31,61:5
31,62:3
31,63:5
31,64:2
31,65:10
31,66:10
31,67:8
32,16:8
32,21:8
32,27:2
32,30:8
32,33:3
32,54:10
32,55:10
32,56:10
32,57:10
32,58:5
32,59:5
32,60:3
32,61:5
32,62:3
32,63:5
32,64:2
32,65:10
32,66:10
32,67:8
33,16:5
33,21:5
33,26:3
33,30:5
33,54:7
33,55:7
33,56:7
33,57:7
33,58:2
33,59:2
33,61:2
33,63:2
33,64:5
33,65:7
33,66:7
33,67:5
34,16:5
34,21:5
34,26:3
34,30:5
34,35:5
34,54:7
34,55:7
34,56:7
34,57:7
34,58:2
34,59:2
34,61:2
34,63:2
34,64:5
34,65:7
34,66:7
34,67:5
35,16:10
35,21:10
35,26:2
35,30:10
35,37:7
35,54:12
35,55:12
35,56:12
35,57:12
35,58:7
35,59:7
35,60:5
35,61:7
35,62:5
35,63:7
35,65:12
35,66:12
35,67:10
36,16:10
36,21:10
36,26:2
36,30:10
36,37:7
36,38:7
36,54:12
36,55:12
36,56:12
36,57:12
36,58:7
36,59:7
36,60:5
36,61:7
36,62:5
36,63:7
36,65:12
36,66:12
36,67:10
37,16:3
37,21:3
37,30:3
37,36:7
37,54:5
37,55:5
37,56:5
37,57:5
37,60:2
37,62:2
37,64:7
37,65:5
37,66:5
37,67:3
38,16:3
38,21:3
38,30:3
38,39:3
38,54:5
38,55:5
38,56:5
38,57:5
38,60:2
38,62:2
38,64:7
38,65:5
38,66:5
38,67:3
39,40:3
39,41:11
39,54:2
39,55:2
39,56:2
39,57:2
39,58:3
39,59:3
39,60:5
39,61:3
39,62:5
39,63:3
39,64:10
39,65:2
39,66:2
40,16:3
40,21:3
40,30:3
40,41:14
40,42:3
40,43:3
40,44:14
40,45:3
40,51:14
40,54:1
40,55:1
40,56:1
40,57:1
40,58:6
40,59:6
40,60:8
40,61:6
40,62:8
40,63:6
40,64:13
40,65:1
40,66:1
40,67:3
41,16:11
41,21:11
41,30:11
41,40:14
41,42:11
41,43:11
41,45:11
41,46:14
41,47:14
41,48:14
41,49:14
41,50:14
41,54:13
41,55:13
41,56:13
41,57:13
41,58:8
41,59:8
41,60:6
41,61:8
41,62:6
41,63:8
41,64:1
41,65:13
41,66:13
41,67:11
42,40:3
42,41:11
42,44:11
42,46:3
42,47:3
42,48:3
42,49:3
42,50:3
42,51:11
42,52:11
42,53:11
42,54:2
42,55:2
42,56:2
42,57:2
42,58:3
42,59:3
42,60:5
42,61:3
42,62:5
42,63:3
42,64:10
42,65:2
42,66:2
43,40:3
43,41:11
43,44:11
43,54:2
43,55:2
43,56:2
43,57:2
43,58:3
43,59:3
43,60:5
43,61:3
43,62:5
43,63:3
43,64:10
43,65:2
43,66:2
44,16:11
44,21:11
44,30:11
44,42:11
44,43:11
44,45:11
44,46:14
44,47:14
44,48:14
44,49:14
44,50:14
44,54:13
44,55:13
44,56:13
44,57:13
44,58:8
44,59:8
44,60:6
44,61:8
44,62:6
44,63:8
44,64:1
44,65:13
44,66:13
44,67:11
45,40:3
45,41:11
45,44:11
45,46:3
45,54:2
45,55:2
45,56:2
45,57:2
45,58:3
45,59:3
45,60:5
45,61:3
45,62:5
45,63:3
45,64:10
45,65:2
45,66:2
46,16:3
46,21:3
46,30:3
46,41:14
46,42:3
46,44:14
46,54:1
46,55:1
46,56:1
46,57:1
46,58:6
46,59:6
46,60:8
46,61:6
46,62:8
46,63:6
46,64:13
46,65:1
46,66:1
46,67:3
47,16:3
47,21:3
47,30:3
47,41:14
47,42:3
47,44:14
47,54:1
47,55:1
47,56:1
47,57:1
47,58:6
47,59:6
47,60:8
47,61:6
47,62:8
47,63:6
47,64:13
47,65:1
47,66:1
47,67:3
48,16:3
48,21:3
48,30:3
48,41:14
48,42:3
48,44:14
48,51:14
48,52:14
48,53:14
48,54:1
48,55:1
48,56:1
48,57:1
48,58:6
48,59:6
48,60:8
48,61:6
48,62:8
48,63:6
48,64:13
48,65:1
48,66:1
48,67:3
48,68:13
48,69:13
48,70:13
48,71:13
48,72:13
48,73:2
48,74:2
48,75:2
48,76:7
48,77:2
48,78:7
48,79:7
48,80:13
48,81:7
48,82:7
48,83:3
48,84:3
48,85:3
48,86:3
49,16:3
49,21:3
49,30:3
49,41:14
49,42:3
49,44:14
49,54:1
49,55:1
49,56:1
49,57:1
49,58:6
49,59:6
49,60:8
49,61:6
49,62:8
49,63:6
49,64:13
49,65:1
49,66:1
49,67:3
50,16:3
50,21:3
50,30:3
50,41:14
50,42:3
50,44:14
50,51:14
50,54:1
50,55:1
50,56:1
50,57:1
50,58:6
50,59:6
50,60:8
50,61:6
50,62:8
50,63:6
50,64:13
50,65:1
50,66:1
50,67:3
51,16:11
51,21:11
51,30:11
51,40:14
51,42:11
51,48:14
51,54:13
51,55:13
51,56:13
51,57:13
51,58:8
51,59:8
51,60:6
51,61:8
51,62:6
51,63:8
51,64:1
51,65:13
51,66:13
51,67:11
52,16:11
52,21:11
52,30:11
52,42:11
52,48:14
52,54:13
52,55:13
52,56:13
52,57:13
52,58:8
52,59:8
52,60:6
52,61:8
52,62:6
52,63:8
52,64:1
52,65:13
52,66:13
52,67:11
53,16:11
53,21:11
53,30:11
53,48:14
53,54:13
53,55:13
53,56:13
53,57:13
53,58:8
53,59:8
53,60:6
53,61:8
53,62:6
53,63:8
53,64:1
53,65:13
53,66:13
53,67:11
53,68:1
53,69:1
53,70:1
53,71:1
54,19:1
54,22:2
54,23:2
54,24:2
54,25:8
54,26:10
54,27:8
54,28:4
54,29:10
54,31:10
54,32:10
54,33:7
54,34:7
54,35:12
54,36:12
54,37:5
54,38:5
54,39:2
54,40:1
54,41:13
54,42:2
54,43:2
54,44:13
54,45:2
54,46:1
54,47:1
54,48:1
54,49:1
54,50:1
54,51:13
54,52:13
54,53:13
54,68:12
54,69:12
54,70:12
54,71:12
54,72:12
54,80:12
55,19:1
55,22:2
55,23:2
55,24:2
55,25:8
55,26:10
55,27:8
55,28:4
55,29:10
55,31:10
55,32:10
55,33:7
55,34:7
55,35:12
55,36:12
55,37:5
55,38:5
55,39:2
55,40:1
55,41:13
55,42:2
55,43:2
55,44:13
55,45:2
55,46:1
55,47:1
55,48:1
55,49:1
55,50:1
55,51:13
55,52:13
55,53:13
55,68:12
55,69:12
55,70:12
55,71:12
55,72:12
55,80:12
56,19:1
56,22:2
56,23:2
56,24:2
56,25:8
56,26:10
56,27:8
56,28:4
56,29:10
56,31:10
56,32:10
56,33:7
56,34:7
56,35:12
56,36:12
56,37:5
56,38:5
56,39:2
56,40:1
56,41:13
56,42:2
56,43:2
56,44:13
56,45:2
56,46:1
56,47:1
56,48:1
56,49:1
56,50:1
56,51:13
56,52:13
56,53:13
56,68:12
56,69:12
56,70:12
56,71:12
56,72:12
56,80:12
57,19:1
57,22:2
57,23:2
57,24:2
57,25:8
57,26:10
57,27:8
57,28:4
57,29:10
57,31:10
57,32:10
57,33:7
57,34:7
57,35:12
57,36:12
57,37:5
57,38:5
57,39:2
57,40:1
57,41:13
57,42:2
57,43:2
57,44:13
57,45:2
57,46:1
57,47:1
57,48:1
57,49:1
57,50:1
57,51:13
57,52:13
57,53:13
57,58:5
57,59:5
57,60:7
57,61:5
57,62:7
57,63:5
57,64:12
57,68:12
57,69:12
57,70:12
57,71:12
57,72:12
57,80:12
58,19:4
58,22:3
58,23:3
58,24:3
58,25:3
58,26:5
58,27:3
58,28:1
58,29:5
58,31:5
58,32:5
58,33:2
58,34:2
58,35:7
58,36:7
58,39:3
58,40:6
58,41:8
58,42:3
58,43:3
58,44:8
58,45:3
58,46:6
58,47:6
58,48:6
58,49:6
58,50:6
58,51:8
58,52:8
58,53:8
58,60:2
58,62:2
58,64:7
58,65:5
58,66:5
58,67:3
58,68:7
58,69:7
58,70:7
58,71:7
58,72:7
58,80:7
59,19:4
59,22:3
59,23:3
59,24:3
59,25:3
59,26:5
59,27:3
59,28:1
59,29:5
59,31:5
59,32:5
59,33:2
59,34:2
59,35:7
59,36:7
59,39:3
59,40:6
59,41:8
59,42:3
59,43:3
59,44:8
59,45:3
59,46:6
59,47:6
59,48:6
59,49:6
59,50:6
59,51:8
59,52:8
59,53:8
59,60:2
59,62:2
59,64:7
59,65:5
59,66:5
59,67:3
59,68:7
59,69:7
59,70:7
59,71:7
59,72:7
59,80:7
60,19:6
60,22:5
60,23:5
60,24:5
60,25:1
60,26:3
60,27:1
60,28:3
60,29:3
60,31:3
60,32:3
60,35:5
60,36:5
60,37:2
60,38:2
60,39:5
60,40:8
60,41:6
60,42:5
60,43:5
60,44:6
60,45:5
60,46:8
60,47:8
60,48:8
60,49:8
60,50:8
60,51:6
60,52:6
60,53:6
60,58:2
60,59:2
60,61:2
60,63:2
60,64:5
60,65:7
60,66:7
60,67:5
60,68:5
60,69:5
60,70:5
60,71:5
60,72:5
60,80:5
61,19:4
61,22:3
61,23:3
61,24:3
61,25:3
61,26:5
61,27:3
61,28:1
61,29:5
61,31:5
61,32:5
61,33:2
61,34:2
61,35:7
61,36:7
61,39:3
61,40:6
61,41:8
61,42:3
61,43:3
61,44:8
61,45:3
61,46:6
61,47:6
61,48:6
61,49:6
61,50:6
61,51:8
61,52:8
61,53:8
61,60:2
61,62:2
61,64:7
61,65:5
61,66:5
61,67:3
61,68:7
61,69:7
61,70:7
61,71:7
61,72:7
61,80:7
62,19:6
62,22:5
62,23:5
62,24:5
62,25:1
62,26:3
62,27:1
62,28:3
62,29:3
62,31:3
62,32:3
62,35:5
62,36:5
62,37:2
62,38:2
62,39:5
62,40:8
62,41:6
62,42:5
62,43:5
62,44:6
62,45:5
62,46:8
62,47:8
62,48:8
62,49:8
62,50:8
62,51:6
62,52:6
62,53:6
62,58:2
62,59:2
62,61:2
62,63:2
62,64:5
62,65:7
62,66:7
62,67:5
62,68:5
62,69:5
62,70:5
62,71:5
62,72:5
62,80:5
63,19:4
63,22:3
63,23:3
63,24:3
63,25:3
63,26:5
63,27:3
63,28:1
63,29:5
63,31:5
63,32:5
63,33:2
63,34:2
63,35:7
63,36:7
63,39:3
63,40:6
63,41:8
63,42:3
63,43:3
63,44:8
63,45:3
63,46:6
63,47:6
63,48:6
63,49:6
63,50:6
63,51:8
63,52:8
63,53:8
63,60:2
63,62:2
63,64:7
63,65:5
63,66:5
63,67:3
63,68:7
63,69:7
63,70:7
63,71:7
63,72:7
63,80:7
64,19:11
64,22:10
64,23:10
64,24:10
64,25:4
64,26:2
64,27:4
64,28:8
64,29:2
64,31:2
64,32:2
64,33:5
64,34:5
64,37:7
64,38:7
64,39:10
64,40:13
64,41:1
64,42:10
64,43:10
64,44:1
64,45:10
64,46:13
64,47:13
64,48:13
64,49:13
64,50:13
64,51:1
64,52:1
64,53:1
64,58:7
64,59:7
64,60:5
64,61:7
64,62:5
64,63:7
64,65:12
64,66:12
64,67:10
65,19:1
65,22:2
65,23:2
65,24:2
65,25:8
65,26:10
65,27:8
65,28:4
65,29:10
65,31:10
65,32:10
65,33:7
65,34:7
65,35:12
65,36:12
65,37:5
65,38:5
65,39:2
65,40:1
65,41:13
65,42:2
65,43:2
65,44:13
65,45:2
65,46:1
65,47:1
65,48:1
65,49:1
65,50:1
65,51:13
65,52:13
65,53:13
65,58:5
65,59:5
65,60:7
65,61:5
65,62:7
65,63:5
65,64:12
65,67:2
65,68:12
65,69:12
65,70:12
65,71:12
65,72:12
65,80:12
66,19:1
66,22:2
66,23:2
66,24:2
66,25:8
66,26:10
66,27:8
66,28:4
66,29:10
66,31:10
66,32:10
66,33:7
66,34:7
66,35:12
66,36:12
66,37:5
66,38:5
66,39:2
66,40:1
66,41:13
66,42:2
66,43:2
66,44:13
66,45:2
66,46:1
66,47:1
66,48:1
66,49:1
66,50:1
66,51:13
66,52:13
66,53:13
66,58:5
66,59:5
66,60:7
66,61:5
66,62:7
66,63:5
66,64:12
66,67:2
66,68:12
66,69:12
66,70:12
66,71:12
66,72:12
66,80:12
67,19:1
67,25:6
67,26:8
67,27:6
67,28:2
67,29:8
67,31:8
67,32:8
67,33:5
67,34:5
67,35:10
67,36:10
67,37:3
67,38:3
67,40:3
67,41:11
67,44:11
67,46:3
67,47:3
67,48:3
67,49:3
67,50:3
67,51:11
67,52:11
67,53:11
67,68:10
67,69:10
67,70:10
67,71:10
67,72:10
67,73:5
67,80:10
68,16:10
68,21:10
68,30:10
68,48:13
68,54:12
68,55:12
68,56:12
68,57:12
68,58:7
68,59:7
68,60:5
68,61:7
68,62:5
68,63:7
68,65:12
68,66:12
68,67:10
68,73:15
68,74:15
68,75:15
68,76:6
68,77:15
69,16:10
69,21:10
69,30:10
69,48:13
69,54:12
69,55:12
69,56:12
69,57:12
69,58:7
69,59:7
69,60:5
69,61:7
69,62:5
69,63:7
69,65:12
69,66:12
69,67:10
69,73:15
69,74:15
69,75:15
69,76:6
69,77:15
70,16:10
70,21:10
70,30:10
70,48:13
70,54:12
70,55:12
70,56:12
70,57:12
70,58:7
70,59:7
70,60:5
70,61:7
70,62:5
70,63:7
70,65:12
70,66:12
70,67:10
70,73:15
70,74:15
70,75:15
70,76:6
70,77:15
71,16:10
71,21:10
71,30:10
71,48:13
71,54:12
71,55:12
71,56:12
71,57:12
71,58:7
71,59:7
71,60:5
71,61:7
71,62:5
71,63:7
71,65:12
71,66:12
71,67:10
71,73:15
72,16:10
72,21:10
72,30:10
72,48:13
72,54:12
72,55:12
72,56:12
72,57:12
72,58:7
72,59:7
72,60:5
72,61:7
72,62:5
72,63:7
72,65:12
72,66:12
72,67:10
72,73:15
72,74:15
72,75:15
72,76:6
72,77:15
72,78:6
73,48:2
73,68:15
73,69:15
73,70:15
73,72:15
73,80:15
74,48:2
74,68:15
74,69:15
74,70:15
74,72:15
74,76:9
74,80:15
75,48:2
75,68:15
75,69:15
75,70:15
75,72:15
75,76:9
75,80:15
76,48:7
76,68:6
76,69:6
76,70:6
76,72:6
76,75:9
76,77:9
76,80:6
77,48:2
77,68:15
77,69:15
77,70:15
77,72:15
77,76:9
77,78:9
77,80:15
78,48:7
78,80:6
79,48:7
79,80:6
80,16:10
80,21:10
80,30:10
80,48:13
80,54:12
80,55:12
80,56:12
80,57:12
80,58:7
80,59:7
80,60:5
80,61:7
80,62:5
80,63:7
80,65:12
80,66:12
80,67:10
80,73:15
80,74:15
80,75:15
80,76:6
80,77:15
80,78:6
80,79:6
80,81:6
81,48:7
81,84:4
81,85:4
82,48:7
82,83:4
82,84:4
82,85:4
83,48:3
84,48:3
84,82:4
85,48:3
85,82:4
86,48:3
86,87:3

<setup times backward>
5,1:7
5,2:7
5,3:7
5,4:7
5,6:7
5,8:7
5,9:10
5,30:5
6,9:3
6,10:3
7,1:7
7,2:7
7,3:7
7,4:7
7,6:7
7,8:7
7,9:10
7,10:10
7,30:5
8,9:3
8,10:3
8,14:3
8,15:3
11,1:7
11,2:7
11,3:7
11,4:7
11,6:7
11,8:7
11,9:10
11,10:10
11,30:5
12,1:7
12,2:7
12,3:7
12,4:7
12,6:7
12,8:7
12,9:10
12,10:10
12,30:5
13,1:7
13,2:7
13,3:7
13,4:7
13,6:7
13,8:7
13,9:10
13,10:10
13,30:5
16,1:2
16,2:2
16,3:2
16,4:2
16,6:2
16,8:2
16,9:5
16,10:5
16,14:5
16,15:5
16,25:6
16,26:8
16,27:6
16,28:2
16,29:8
16,31:8
16,32:8
16,33:5
16,34:5
16,35:10
16,36:10
16,37:3
16,38:3
16,41:11
16,44:11
16,51:11
16,52:11
16,53:11
16,68:10
16,69:10
16,70:10
16,71:10
16,72:10
16,80:10
17,1:3
17,2:3
17,3:3
17,4:3
17,6:3
17,8:3
17,9:6
17,10:6
17,14:6
17,15:6
17,16:1
17,30:1
18,1:3
18,2:3
18,3:3
18,4:3
18,6:3
18,8:3
18,9:6
18,10:6
18,14:6
18,15:6
18,16:1
18,30:1
19,1:3
19,2:3
19,3:3
19,4:3
19,6:3
19,8:3
19,9:6
19,10:6
19,14:6
19,15:6
19,16:1
19,21:1
19,28:3
19,30:1
19,58:4
19,59:4
19,60:6
19,61:4
19,62:6
19,63:4
19,64:11
19,67:1
20,1:3
20,2:3
20,3:3
20,4:3
20,6:3
20,8:3
20,9:6
20,10:6
20,14:6
20,15:6
20,16:1
20,22:1
20,23:1
20,24:1
20,25:7
20,26:9
20,27:7
20,30:1
21,1:2
21,2:2
21,3:2
21,4:2
21,6:2
21,8:2
21,9:5
21,10:5
21,14:5
21,15:5
21,25:6
21,26:8
21,27:6
21,28:2
21,29:8
21,31:8
21,32:8
21,33:5
21,34:5
21,35:10
21,36:10
21,37:3
21,38:3
21,41:11
21,44:11
21,51:11
21,52:11
21,53:11
21,68:10
21,69:10
21,70:10
21,71:10
21,72:10
21,80:10
22,1:2
22,2:2
22,3:2
22,4:2
22,6:2
22,8:2
22,9:5
22,10:5
22,14:5
22,15:5
22,28:2
22,58:3
22,59:3
22,60:5
22,61:3
22,62:5
22,63:3
22,64:10
23,1:2
23,2:2
23,3:2
23,4:2
23,6:2
23,8:2
23,9:5
23,10:5
23,14:5
23,15:5
23,28:2
23,58:3
23,59:3
23,60:5
23,61:3
23,62:5
23,63:3
23,64:10
24,1:2
24,2:2
24,3:2
24,4:2
24,6:2
24,8:2
24,9:5
24,10:5
24,14:5
24,15:5
24,28:2
24,58:3
24,59:3
24,60:5
24,61:3
24,62:5
24,63:3
24,64:10
25,64:4
26,35:2
26,36:2
26,64:2
27,26:2
27,29:2
27,31:2
27,32:2
27,64:4
28,9:3
28,10:3
28,14:3
28,15:3
28,25:4
28,26:6
28,27:4
28,58:1
28,59:1
28,60:3
28,61:1
28,62:3
28,63:1
28,64:8
29,64:2
30,1:2
30,2:2
30,3:2
30,4:2
30,6:2
30,8:2
30,9:5
30,10:5
30,14:5
30,15:5
30,25:6
30,26:8
30,27:6
30,28:2
30,29:8
30,31:8
30,32:8
30,33:5
30,34:5
30,35:10
30,36:10
30,37:3
30,38:3
30,41:11
30,44:11
30,51:11
30,52:11
30,53:11
30,68:10
30,69:10
30,70:10
30,71:10
30,72:10
30,80:10
31,64:2
32,64:2
33,25:1
33,26:3
33,27:1
33,29:3
33,31:3
33,32:3
33,64:5
34,25:1
34,26:3
34,27:1
34,29:3
34,31:3
34,32:3
34,64:5
37,9:2
37,10:2
37,14:2
37,15:2
37,25:3
37,26:5
37,27:3
37,29:5
37,31:5
37,32:5
37,33:2
37,34:2
37,35:7
37,36:7
37,60:2
37,62:2
37,64:7
38,9:2
38,10:2
38,14:2
38,15:2
38,25:3
38,26:5
38,27:3
38,29:5
38,31:5
38,32:5
38,33:2
38,34:2
38,35:7
38,36:7
38,60:2
38,62:2
38,64:7
39,1:2
39,2:2
39,3:2
39,4:2
39,6:2
39,8:2
39,9:5
39,10:5
39,14:5
39,15:5
39,25:6
39,26:8
39,27:6
39,28:2
39,29:8
39,31:8
39,32:8
39,33:5
39,34:5
39,35:10
39,36:10
39,37:3
39,38:3
39,58:3
39,59:3
39,60:5
39,61:3
39,62:5
39,63:3
39,64:10
40,1:5
40,2:5
40,3:5
40,4:5
40,6:5
40,8:5
40,9:8
40,10:8
40,14:8
40,15:8
40,16:3
40,17:2
40,18:2
40,19:2
40,20:2
40,21:3
40,22:3
40,23:3
40,24:3
40,25:9
40,26:11
40,27:9
40,28:5
40,29:11
40,30:3
40,31:11
40,32:11
40,33:8
40,34:8
40,35:13
40,36:13
40,37:6
40,38:6
40,39:3
40,41:14
40,42:3
40,43:3
40,45:3
40,51:14
40,54:1
40,55:1
40,56:1
40,57:1
40,58:6
40,59:6
40,60:8
40,61:6
40,62:8
40,63:6
40,64:13
40,65:1
40,66:1
40,67:3
42,1:2
42,2:2
42,3:2
42,4:2
42,6:2
42,8:2
42,9:5
42,10:5
42,14:5
42,15:5
42,25:6
42,26:8
42,27:6
42,28:2
42,29:8
42,31:8
42,32:8
42,33:5
42,34:5
42,35:10
42,36:10
42,37:3
42,38:3
42,41:11
42,44:11
42,51:11
42,52:11
42,58:3
42,59:3
42,60:5
42,61:3
42,62:5
42,63:3
42,64:10
43,1:2
43,2:2
43,3:2
43,4:2
43,6:2
43,8:2
43,9:5
43,10:5
43,14:5
43,15:5
43,25:6
43,26:8
43,27:6
43,28:2
43,29:8
43,31:8
43,32:8
43,33:5
43,34:5
43,35:10
43,36:10
43,37:3
43,38:3
43,41:11
43,44:11
43,58:3
43,59:3
43,60:5
43,61:3
43,62:5
43,63:3
43,64:10
45,1:2
45,2:2
45,3:2
45,4:2
45,6:2
45,8:2
45,9:5
45,10:5
45,14:5
45,15:5
45,25:6
45,26:8
45,27:6
45,28:2
45,29:8
45,31:8
45,32:8
45,33:5
45,34:5
45,35:10
45,36:10
45,37:3
45,38:3
45,41:11
45,44:11
45,58:3
45,59:3
45,60:5
45,61:3
45,62:5
45,63:3
45,64:10
46,1:5
46,2:5
46,3:5
46,4:5
46,6:5
46,8:5
46,9:8
46,10:8
46,14:8
46,15:8
46,16:3
46,17:2
46,18:2
46,19:2
46,20:2
46,21:3
46,22:3
46,23:3
46,24:3
46,25:9
46,26:11
46,27:9
46,28:5
46,29:11
46,30:3
46,31:11
46,32:11
46,33:8
46,34:8
46,35:13
46,36:13
46,37:6
46,38:6
46,39:3
46,41:14
46,42:3
46,43:3
46,44:14
46,45:3
46,54:1
46,55:1
46,56:1
46,57:1
46,58:6
46,59:6
46,60:8
46,61:6
46,62:8
46,63:6
46,64:13
46,65:1
46,66:1
46,67:3
47,1:5
47,2:5
47,3:5
47,4:5
47,6:5
47,8:5
47,9:8
47,10:8
47,14:8
47,15:8
47,16:3
47,17:2
47,18:2
47,19:2
47,20:2
47,21:3
47,22:3
47,23:3
47,24:3
47,25:9
47,26:11
47,27:9
47,28:5
47,29:11
47,30:3
47,31:11
47,32:11
47,33:8
47,34:8
47,35:13
47,36:13
47,37:6
47,38:6
47,39:3
47,41:14
47,42:3
47,43:3
47,44:14
47,45:3
47,54:1
47,55:1
47,56:1
47,57:1
47,58:6
47,59:6
47,60:8
47,61:6
47,62:8
47,63:6
47,64:13
47,65:1
47,66:1
47,67:3
48,1:5
48,2:5
48,3:5
48,4:5
48,6:5
48,8:5
48,9:8
48,10:8
48,14:8
48,15:8
48,16:3
48,17:2
48,18:2
48,19:2
48,20:2
48,21:3
48,22:3
48,23:3
48,24:3
48,25:9
48,26:11
48,27:9
48,28:5
48,29:11
48,30:3
48,31:11
48,32:11
48,33:8
48,34:8
48,35:13
48,36:13
48,37:6
48,38:6
48,39:3
48,41:14
48,42:3
48,43:3
48,44:14
48,45:3
48,51:14
48,52:14
48,53:14
48,54:1
48,55:1
48,56:1
48,57:1
48,58:6
48,59:6
48,60:8
48,61:6
48,62:8
48,63:6
48,64:13
48,65:1
48,66:1
48,67:3
48,68:13
48,69:13
48,70:13
48,71:13
48,72:13
48,76:7
48,78:7
48,79:7
48,80:13
48,81:7
48,82:7
48,83:3
48,84:3
48,85:3
48,86:3
49,1:5
49,2:5
49,3:5
49,4:5
49,6:5
49,8:5
49,9:8
49,10:8
49,14:8
49,15:8
49,16:3
49,17:2
49,18:2
49,19:2
49,20:2
49,21:3
49,22:3
49,23:3
49,24:3
49,25:9
49,26:11
49,27:9
49,28:5
49,29:11
49,30:3
49,31:11
49,32:11
49,33:8
49,34:8
49,35:13
49,36:13
49,37:6
49,38:6
49,39:3
49,41:14
49,42:3
49,43:3
49,44:14
49,45:3
49,54:1
49,55:1
49,56:1
49,57:1
49,58:6
49,59:6
49,60:8
49,61:6
49,62:8
49,63:6
49,64:13
49,65:1
49,66:1
49,67:3
50,1:5
50,2:5
50,3:5
50,4:5
50,6:5
50,8:5
50,9:8
50,10:8
50,14:8
50,15:8
50,16:3
50,17:2
50,18:2
50,19:2
50,20:2
50,21:3
50,22:3
50,23:3
50,24:3
50,25:9
50,26:11
50,27:9
50,28:5
50,29:11
50,30:3
50,31:11
50,32:11
50,33:8
50,34:8
50,35:13
50,36:13
50,37:6
50,38:6
50,39:3
50,41:14
50,42:3
50,43:3
50,44:14
50,45:3
50,54:1
50,55:1
50,56:1
50,57:1
50,58:6
50,59:6
50,60:8
50,61:6
50,62:8
50,63:6
50,64:13
50,65:1
50,66:1
50,67:3
54,1:4
54,2:4
54,3:4
54,4:4
54,6:4
54,8:4
54,9:7
54,10:7
54,14:7
54,15:7
54,16:2
54,17:1
54,18:1
54,19:1
54,20:1
54,21:2
54,22:2
54,23:2
54,24:2
54,25:8
54,26:10
54,27:8
54,28:4
54,29:10
54,30:2
54,31:10
54,32:10
54,33:7
54,34:7
54,35:12
54,36:12
54,37:5
54,38:5
54,39:2
54,41:13
54,42:2
54,43:2
54,44:13
54,45:2
54,51:13
54,52:13
54,53:13
54,68:12
54,69:12
54,70:12
54,71:12
54,72:12
54,80:12
55,1:4
55,2:4
55,3:4
55,4:4
55,6:4
55,8:4
55,9:7
55,10:7
55,14:7
55,15:7
55,16:2
55,17:1
55,18:1
55,19:1
55,20:1
55,21:2
55,22:2
55,23:2
55,24:2
55,25:8
55,26:10
55,27:8
55,28:4
55,29:10
55,30:2
55,31:10
55,32:10
55,33:7
55,34:7
55,35:12
55,36:12
55,37:5
55,38:5
55,39:2
55,41:13
55,42:2
55,43:2
55,44:13
55,45:2
55,51:13
55,52:13
55,53:13
55,68:12
55,69:12
55,70:12
55,71:12
55,72:12
55,80:12
56,1:4
56,2:4
56,3:4
56,4:4
56,6:4
56,8:4
56,9:7
56,10:7
56,14:7
56,15:7
56,16:2
56,17:1
56,18:1
56,19:1
56,20:1
56,21:2
56,22:2
56,23:2
56,24:2
56,25:8
56,26:10
56,27:8
56,28:4
56,29:10
56,30:2
56,31:10
56,32:10
56,33:7
56,34:7
56,35:12
56,36:12
56,37:5
56,38:5
56,39:2
56,41:13
56,42:2
56,43:2
56,44:13
56,45:2
56,51:13
56,52:13
56,53:13
56,68:12
56,69:12
56,70:12
56,71:12
56,72:12
56,80:12
57,1:4
57,2:4
57,3:4
57,4:4
57,6:4
57,8:4
57,9:7
57,10:7
57,14:7
57,15:7
57,16:2
57,17:1
57,18:1
57,19:1
57,20:1
57,21:2
57,22:2
57,23:2
57,24:2
57,25:8
57,26:10
57,27:8
57,28:4
57,29:10
57,30:2
57,31:10
57,32:10
57,33:7
57,34:7
57,35:12
57,36:12
57,37:5
57,38:5
57,39:2
57,41:13
57,42:2
57,43:2
57,44:13
57,45:2
57,51:13
57,52:13
57,53:13
57,68:12
57,69:12
57,70:12
57,71:12
57,72:12
57,80:12
58,9:2
58,10:2
58,14:2
58,15:2
58,25:3
58,26:5
58,27:3
58,29:5
58,31:5
58,32:5
58,33:2
58,34:2
58,35:7
58,36:7
58,41:8
58,44:8
58,51:8
58,52:8
58,53:8
58,60:2
58,62:2
58,64:7
58,68:7
58,69:7
58,70:7
58,71:7
58,72:7
58,80:7
59,9:2
59,10:2
59,14:2
59,15:2
59,25:3
59,26:5
59,27:3
59,29:5
59,31:5
59,32:5
59,33:2
59,34:2
59,35:7
59,36:7
59,41:8
59,44:8
59,51:8
59,52:8
59,53:8
59,60:2
59,62:2
59,64:7
59,68:7
59,69:7
59,70:7
59,71:7
59,72:7
59,80:7
60,25:1
60,26:3
60,27:1
60,29:3
60,31:3
60,32:3
60,35:5
60,36:5
60,41:6
60,44:6
60,51:6
60,52:6
60,53:6
60,64:5
60,68:5
60,69:5
60,70:5
60,71:5
60,72:5
60,80:5
61,9:2
61,10:2
61,14:2
61,15:2
61,25:3
61,26:5
61,27:3
61,29:5
61,31:5
61,32:5
61,33:2
61,34:2
61,35:7
61,36:7
61,41:8
61,44:8
61,51:8
61,52:8
61,53:8
61,60:2
61,62:2
61,64:7
61,68:7
61,69:7
61,70:7
61,71:7
61,72:7
61,80:7
62,25:1
62,26:3
62,27:1
62,29:3
62,31:3
62,32:3
62,35:5
62,36:5
62,41:6
62,44:6
62,51:6
62,52:6
62,53:6
62,64:5
62,68:5
62,69:5
62,70:5
62,71:5
62,72:5
62,80:5
63,9:2
63,10:2
63,14:2
63,15:2
63,25:3
63,26:5
63,27:3
63,29:5
63,31:5
63,32:5
63,33:2
63,34:2
63,35:7
63,36:7
63,41:8
63,44:8
63,51:8
63,52:8
63,53:8
63,60:2
63,62:2
63,64:7
63,68:7
63,69:7
63,70:7
63,71:7
63,72:7
63,80:7
64,41:1
64,44:1
64,51:1
64,52:1
64,53:1
65,1:4
65,2:4
65,3:4
65,4:4
65,6:4
65,8:4
65,9:7
65,10:7
65,14:7
65,15:7
65,16:2
65,17:1
65,18:1
65,19:1
65,20:1
65,21:2
65,22:2
65,23:2
65,24:2
65,25:8
65,26:10
65,27:8
65,28:4
65,29:10
65,30:2
65,31:10
65,32:10
65,33:7
65,34:7
65,35:12
65,36:12
65,37:5
65,38:5
65,39:2
65,41:13
65,42:2
65,43:2
65,44:13
65,45:2
65,51:13
65,52:13
65,53:13
65,58:5
65,59:5
65,60:7
65,61:5
65,62:7
65,63:5
65,64:12
65,68:12
65,69:12
65,70:12
65,71:12
65,72:12
65,80:12
66,1:4
66,2:4
66,3:4
66,4:4
66,6:4
66,8:4
66,9:7
66,10:7
66,14:7
66,15:7
66,16:2
66,17:1
66,18:1
66,19:1
66,20:1
66,21:2
66,22:2
66,23:2
66,24:2
66,25:8
66,26:10
66,27:8
66,28:4
66,29:10
66,30:2
66,31:10
66,32:10
66,33:7
66,34:7
66,35:12
66,36:12
66,37:5
66,38:5
66,39:2
66,41:13
66,42:2
66,43:2
66,44:13
66,45:2
66,51:13
66,52:13
66,53:13
66,58:5
66,59:5
66,60:7
66,61:5
66,62:7
66,63:5
66,64:12
66,68:12
66,69:12
66,70:12
66,71:12
66,72:12
66,80:12
67,1:2
67,2:2
67,3:2
67,4:2
67,6:2
67,8:2
67,9:5
67,10:5
67,14:5
67,15:5
67,25:6
67,26:8
67,27:6
67,28:2
67,29:8
67,31:8
67,32:8
67,33:5
67,34:5
67,35:10
67,36:10
67,37:3
67,38:3
67,41:11
67,44:11
67,51:11
67,52:11
67,53:11
67,58:3
67,59:3
67,60:5
67,61:3
67,62:5
67,63:3
67,64:10
67,68:10
67,69:10
67,70:10
67,71:10
67,72:10
67,80:10
68,41:1
68,44:1
68,51:1
68,52:1
68,53:1
69,41:1
69,44:1
69,51:1
69,52:1
69,53:1
70,41:1
70,44:1
70,51:1
70,52:1
70,53:1
71,41:1
71,44:1
71,51:1
71,52:1
71,53:1
72,41:1
72,44:1
72,51:1
72,52:1
72,53:1
73,1:7
73,2:7
73,3:7
73,4:7
73,6:7
73,8:7
73,9:10
73,10:10
73,14:10
73,15:10
73,16:5
73,17:4
73,18:4
73,19:4
73,20:4
73,21:5
73,22:5
73,23:5
73,24:5
73,25:11
73,26:13
73,27:11
73,28:7
73,29:13
73,30:5
73,31:13
73,32:13
73,33:10
73,34:10
73,35:15
73,36:15
73,37:8
73,38:8
73,39:5
73,40:2
73,41:16
73,42:5
73,43:5
73,44:16
73,45:5
73,46:2
73,47:2
73,48:2
73,49:2
73,50:2
73,51:16
73,52:16
73,53:16
73,54:3
73,55:3
73,56:3
73,57:3
73,58:8
73,59:8
73,60:10
73,61:8
73,62:10
73,63:8
73,64:15
73,65:3
73,66:3
73,67:5
73,68:15
73,69:15
73,70:15
73,71:15
73,72:15
73,80:15
74,1:7
74,2:7
74,3:7
74,4:7
74,6:7
74,8:7
74,9:10
74,10:10
74,14:10
74,15:10
74,16:5
74,17:4
74,18:4
74,19:4
74,20:4
74,21:5
74,22:5
74,23:5
74,24:5
74,25:11
74,26:13
74,27:11
74,28:7
74,29:13
74,30:5
74,31:13
74,32:13
74,33:10
74,34:10
74,35:15
74,36:15
74,37:8
74,38:8
74,39:5
74,40:2
74,41:16
74,42:5
74,43:5
74,44:16
74,45:5
74,46:2
74,47:2
74,48:2
74,49:2
74,50:2
74,51:16
74,52:16
74,53:16
74,54:3
74,55:3
74,56:3
74,57:3
74,58:8
74,59:8
74,60:10
74,61:8
74,62:10
74,63:8
74,64:15
74,65:3
74,66:3
74,67:5
74,68:15
74,69:15
74,70:15
74,71:15
74,72:15
74,80:15
75,1:7
75,2:7
75,3:7
75,4:7
75,6:7
75,8:7
75,9:10
75,10:10
75,14:10
75,15:10
75,16:5
75,17:4
75,18:4
75,19:4
75,20:4
75,21:5
75,22:5
75,23:5
75,24:5
75,25:11
75,26:13
75,27:11
75,28:7
75,29:13
75,30:5
75,31:13
75,32:13
75,33:10
75,34:10
75,35:15
75,36:15
75,37:8
75,38:8
75,39:5
75,40:2
75,41:16
75,42:5
75,43:5
75,44:16
75,45:5
75,46:2
75,47:2
75,48:2
75,49:2
75,50:2
75,51:16
75,52:16
75,53:16
75,54:3
75,55:3
75,56:3
75,57:3
75,58:8
75,59:8
75,60:10
75,61:8
75,62:10
75,63:8
75,64:15
75,65:3
75,66:3
75,67:5
75,68:15
75,69:15
75,70:15
75,71:15
75,72:15
75,76:9
75,80:15
76,9:1
76,10:1
76,14:1
76,15:1
76,25:2
76,26:4
76,27:2
76,29:4
76,31:4
76,32:4
76,33:1
76,34:1
76,35:6
76,36:6
76,41:7
76,44:7
76,51:7
76,52:7
76,53:7
76,60:1
76,62:1
76,64:6
76,68:6
76,69:6
76,70:6
76,71:6
76,72:6
76,80:6
77,1:7
77,2:7
77,3:7
77,4:7
77,6:7
77,8:7
77,9:10
77,10:10
77,14:10
77,15:10
77,16:5
77,17:4
77,18:4
77,19:4
77,20:4
77,21:5
77,22:5
77,23:5
77,24:5
77,25:11
77,26:13
77,27:11
77,28:7
77,29:13
77,30:5
77,31:13
77,32:13
77,33:10
77,34:10
77,35:15
77,36:15
77,37:8
77,38:8
77,39:5
77,40:2
77,41:16
77,42:5
77,43:5
77,44:16
77,45:5
77,46:2
77,47:2
77,48:2
77,49:2
77,50:2
77,51:16
77,52:16
77,53:16
77,54:3
77,55:3
77,56:3
77,57:3
77,58:8
77,59:8
77,60:10
77,61:8
77,62:10
77,63:8
77,64:15
77,65:3
77,66:3
77,67:5
77,68:15
77,69:15
77,70:15
77,71:15
77,72:15
77,76:9
77,80:15
78,9:1
78,10:1
78,14:1
78,15:1
78,25:2
78,26:4
78,27:2
78,29:4
78,31:4
78,32:4
78,33:1
78,34:1
78,35:6
78,36:6
78,41:7
78,44:7
78,51:7
78,52:7
78,53:7
78,60:1
78,62:1
78,64:6
78,68:6
78,69:6
78,70:6
78,71:6
78,72:6
78,80:6
79,9:1
79,10:1
79,14:1
79,15:1
79,25:2
79,26:4
79,27:2
79,29:4
79,31:4
79,32:4
79,33:1
79,34:1
79,35:6
79,36:6
79,41:7
79,44:7
79,51:7
79,52:7
79,53:7
79,60:1
79,62:1
79,64:6
79,68:6
79,69:6
79,70:6
79,71:6
79,72:6
79,80:6
80,41:1
80,44:1
80,51:1
80,52:1
80,53:1
81,9:1
81,10:1
81,14:1
81,15:1
81,25:2
81,26:4
81,27:2
81,29:4
81,31:4
81,32:4
81,33:1
81,34:1
81,35:6
81,36:6
81,41:7
81,44:7
81,51:7
81,52:7
81,53:7
81,60:1
81,62:1
81,64:6
81,68:6
81,69:6
81,70:6
81,71:6
81,72:6
81,80:6
82,9:1
82,10:1
82,14:1
82,15:1
82,25:2
82,26:4
82,27:2
82,29:4
82,31:4
82,32:4
82,33:1
82,34:1
82,35:6
82,36:6
82,41:7
82,44:7
82,51:7
82,52:7
82,53:7
82,60:1
82,62:1
82,64:6
82,68:6
82,69:6
82,70:6
82,71:6
82,72:6
82,80:6
83,1:2
83,2:2
83,3:2
83,4:2
83,6:2
83,8:2
83,9:5
83,10:5
83,14:5
83,15:5
83,25:6
83,26:8
83,27:6
83,28:2
83,29:8
83,31:8
83,32:8
83,33:5
83,34:5
83,35:10
83,36:10
83,37:3
83,38:3
83,41:11
83,44:11
83,51:11
83,52:11
83,53:11
83,58:3
83,59:3
83,60:5
83,61:3
83,62:5
83,63:3
83,64:10
83,68:10
83,69:10
83,70:10
83,71:10
83,72:10
83,76:4
83,78:4
83,79:4
83,80:10
83,81:4
83,82:4
84,1:2
84,2:2
84,3:2
84,4:2
84,6:2
84,8:2
84,9:5
84,10:5
84,14:5
84,15:5
84,25:6
84,26:8
84,27:6
84,28:2
84,29:8
84,31:8
84,32:8
84,33:5
84,34:5
84,35:10
84,36:10
84,37:3
84,38:3
84,41:11
84,44:11
84,51:11
84,52:11
84,53:11
84,58:3
84,59:3
84,60:5
84,61:3
84,62:5
84,63:3
84,64:10
84,68:10
84,69:10
84,70:10
84,71:10
84,72:10
84,76:4
84,78:4
84,79:4
84,80:10
84,81:4
84,82:4
85,1:2
85,2:2
85,3:2
85,4:2
85,6:2
85,8:2
85,9:5
85,10:5
85,14:5
85,15:5
85,25:6
85,26:8
85,27:6
85,28:2
85,29:8
85,31:8
85,32:8
85,33:5
85,34:5
85,35:10
85,36:10
85,37:3
85,38:3
85,41:11
85,44:11
85,51:11
85,52:11
85,53:11
85,58:3
85,59:3
85,60:5
85,61:3
85,62:5
85,63:3
85,64:10
85,68:10
85,69:10
85,70:10
85,71:10
85,72:10
85,76:4
85,78:4
85,79:4
85,80:10
85,81:4
85,82:4
86,1:2
86,2:2
86,3:2
86,4:2
86,6:2
86,8:2
86,9:5
86,10:5
86,14:5
86,15:5
86,25:6
86,26:8
86,27:6
86,28:2
86,29:8
86,31:8
86,32:8
86,33:5
86,34:5
86,35:10
86,36:10
86,37:3
86,38:3
86,41:11
86,44:11
86,51:11
86,52:11
86,53:11
86,58:3
86,59:3
86,60:5
86,61:3
86,62:5
86,63:3
86,64:10
86,68:10
86,69:10
86,70:10
86,71:10
86,72:10
86,76:4
86,78:4
86,79:4
86,80:10
86,81:4
86,82:4
87,1:5
87,2:5
87,3:5
87,4:5
87,6:5
87,8:5
87,9:8
87,10:8
87,14:8
87,15:8
87,16:3
87,17:2
87,18:2
87,19:2
87,20:2
87,21:3
87,22:3
87,23:3
87,24:3
87,25:9
87,26:11
87,27:9
87,28:5
87,29:11
87,30:3
87,31:11
87,32:11
87,33:8
87,34:8
87,35:13
87,36:13
87,37:6
87,38:6
87,39:3
87,41:14
87,42:3
87,43:3
87,44:14
87,45:3
87,51:14
87,52:14
87,53:14
87,54:1
87,55:1
87,56:1
87,57:1
87,58:6
87,59:6
87,60:8
87,61:6
87,62:8
87,63:6
87,64:13
87,65:1
87,66:1
87,67:3
87,68:13
87,69:13
87,70:13
87,71:13
87,72:13
87,76:7
87,78:7
87,79:7
87,80:13
87,81:7
87,82:7
87,83:3
87,84:3
87,85:3
87,86:3
88,1:5
88,2:5
88,3:5
88,4:5
88,6:5
88,8:5
88,9:8
88,10:8
88,14:8
88,15:8
88,16:3
88,17:2
88,18:2
88,19:2
88,20:2
88,21:3
88,22:3
88,23:3
88,24:3
88,25:9
88,26:11
88,27:9
88,28:5
88,29:11
88,30:3
88,31:11
88,32:11
88,33:8
88,34:8
88,35:13
88,36:13
88,37:6
88,38:6
88,39:3
88,41:14
88,42:3
88,43:3
88,44:14
88,45:3
88,51:14
88,52:14
88,53:14
88,54:1
88,55:1
88,56:1
88,57:1
88,58:6
88,59:6
88,60:8
88,61:6
88,62:8
88,63:6
88,64:13
88,65:1
88,66:1
88,67:3
88,68:13
88,69:13
88,70:13
88,71:13
88,72:13
88,76:7
88,78:7
88,79:7
88,80:13
88,81:7
88,82:7
88,83:3
88,84:3
88,85:3
88,86:3
89,1:5
89,2:5
89,3:5
89,4:5
89,6:5
89,8:5
89,9:8
89,10:8
89,14:8
89,15:8
89,16:3
89,17:2
89,18:2
89,19:2
89,20:2
89,21:3
89,22:3
89,23:3
89,24:3
89,25:9
89,26:11
89,27:9
89,28:5
89,29:11
89,30:3
89,31:11
89,32:11
89,33:8
89,34:8
89,35:13
89,36:13
89,37:6
89,38:6
89,39:3
89,41:14
89,42:3
89,43:3
89,44:14
89,45:3
89,51:14
89,52:14
89,53:14
89,54:1
89,55:1
89,56:1
89,57:1
89,58:6
89,59:6
89,60:8
89,61:6
89,62:8
89,63:6
89,64:13
89,65:1
89,66:1
89,67:3
89,68:13
89,69:13
89,70:13
89,71:13
89,72:13
89,76:7
89,78:7
89,79:7
89,80:13
89,81:7
89,82:7
89,83:3
89,84:3
89,85:3
89,86:3

<end>

<optimal SALBP-1 value>
20


<rand seed>
467321153

